\Problem name: 

Minimize
OBJROW: - x1 - x2 - x3 - x4 - x5 - x6
Subject To
clq000:  x1 + x2 + x3 <= 1
clq001:  x4 + x5 + x6 <= 1
Bounds
 0 <= x1 <= 1
 0 <= x2 <= 1
 0 <= x3 <= 1
 0 <= x4 <= 1
 0 <= x5 <= 1
 0 <= x6 <= 1
Integers
x1 x2 x3 x4 x5 x6 
End
